@SET DATAPATH /public/source/cp2k-6.1.0/data

&FORCE_EVAL
  METHOD Quickstep
  &DFT
    BASIS_SET_FILE_NAME ${DATAPATH}/BASIS_MOLOPT
#    POTENTIAL_FILE_NAME ./rr_pot
    POTENTIAL_FILE_NAME ${DATAPATH}/GTH_POTENTIALS
    WFN_RESTART_FILE_NAME ./cp2k-RESTART.wfn
#    PLUS_U_METHOD mulliken_charges
#    CHARGE +2
    UKS  T
#    MULTIPLICITY 1
    &MGRID
      CUTOFF 500
    &END MGRID
    &QS
      WF_INTERPOLATION ASPC
      EXTRAPOLATION_ORDER 3
    &END QS
#    &POISSON
#      PERIODIC NONE
#      POISSON_SOLVER MT
#      &MT
#        ALPHA 7.0
#        REL_CUTOFF 1.2
#      &END MT
#    &END POISSON
     &SCF
	  SCF_GUESS RESTART
	  EPS_SCF 1.0E-6
	  MAX_SCF 500
	  ADDED_MOS 500
	  CHOLESKY INVERSE
	  &SMEAR ON
	    METHOD FERMI_DIRAC
	    ELECTRONIC_TEMPERATURE [K] 300
	  &END SMEAR
	  &DIAGONALIZATION
	    ALGORITHM STANDARD
	    EPS_ADAPT 0.01
	  &END DIAGONALIZATION
	  &MIXING
	    METHOD BROYDEN_MIXING
	    ALPHA 0.1
	    BETA 1.5
	    NBROYDEN 8
	  &END MIXING
    &END SCF
    &XC
      &XC_FUNCTIONAL PBE
      &END XC_FUNCTIONAL
      &VDW_POTENTIAL
        DISPERSION_FUNCTIONAL  PAIR_POTENTIAL
        &PAIR_POTENTIAL
          REFERENCE_FUNCTIONAL  PBE
          TYPE  DFTD3
          PARAMETER_FILE_NAME  ${DATAPATH}/dftd3.dat
          R_CUTOFF [angstrom] 15
          VERBOSE_OUTPUT  TRUE
        &END PAIR_POTENTIAL
      &END VDW_POTENTIAL
    &END XC
      &PRINT
#       &MULLIKEN  SILENT
#         FILENAME =Mull.mulliken
#         &EACH
#           MD               5
#         &END EACH
#       &END MULLIKEN
#
#       &E_DENSITY_CUBE
#         FILENAME Dentity_maybeSpin.cube
#       &END E_DENSITY_CUBE
#       &MO_CUBES
#         NLUMO 1
#         FILENAME MO.cube 
#       &END MO_CUBES
     &END PRINT
  &END DFT
  &PRINT
    &FORCES ON
    &END FORCES
  &END PRINT
  &SUBSYS
    &CELL
     ABC 10.93746 10.93746 10.93746
     ALPHA_BETA_GAMMA  90.0000  90.0000  90.0000
    &END CELL
    &COORD
	  @INCLUDE 'coord.inc'
	&END COORD
#    &TOPOLOGY
#      &CENTER_COORDINATES
#      &END CENTER_COORDINATES
#   &END TOPOLOGY
    &KIND C
      BASIS_SET DZVP-MOLOPT-SR-GTH 
      POTENTIAL GTH-PBE-q4
    &END KIND
    &KIND O
      BASIS_SET DZVP-MOLOPT-SR-GTH
      POTENTIAL GTH-PBE-q6
    &END KIND
    &KIND H
      BASIS_SET DZVP-MOLOPT-SR-GTH
      POTENTIAL GTH-PBE-q1
    &END KIND
    &KIND Si 
      BaSIS_SET DZVP-MOLOPT-SR-GTH
      POTENTIAL GTH-PBE-q4
    &END KIND
    &KIND Li 
      BaSIS_SET DZVP-MOLOPT-SR-GTH
      POTENTIAL GTH-PBE-q3
    &END KIND
   &END SUBSYS
STRESS_TENSOR ANALYTICAL
&END FORCE_EVAL
&GLOBAL
#  FFTLIB FFTSG
  PROJECT cp2k
  #  RUN_TYPE GEO_OPT
# RUN_TYPE ENERGY
  RUN_TYPE MD
  PRINT_LEVEL LOW   
&END GLOBAL
 &MOTION
    &MD
    ENSEMBLE NPT_I 
    STEPS &{step}
    TIMESTEP &{timestep}
    TEMPERATURE &{temperature}
#   ANNEALING 1.001
# use in NVT ensemble
     &THERMOSTAT
       TYPE NOSE
#     REGION MASSIVE
       &NOSE
        LENGTH 3
        YOSHIDA 3
        MTS 2
        TIMECON [wavenumber_t] 1000
      &END NOSE
     &END THERMOSTAT
   &BAROSTAT
     PRESSURE &{pressure}  # PRESSURE, unit[bar]
     TIMECON 1000
   &END BAROSTAT
   &END MD
   &GEO_OPT
    MAX_ITER 400
   OPTIMIZER LBFGS
#   OPTIMIZER BFGS
#    OPTIMIZER CG
    MAX_FORCE 6.0E-4
    &LBFGS
      MAX_H_RANK 30
    &END LBFGS
#    &CG
#      &LINE_SEARCH
#        TYPE 2PNT
#      &END LINE_SEARCH
#    &END CG
  &END GEO_OPT
  &PRINT
   &TRAJECTORY
     &EACH
       MD &{freq_coord}
     &END EACH
   &END TRAJECTORY
   &VELOCITIES 
     &EACH
       MD &{freq_velocity}
     &END EACH
   &END VELOCITIES
   &RESTART_HISTORY
     &EACH
       MD  &{freq_restart}
     &END EACH 
   &END RESTART_HISTORY
   &CELL
     &EACH
       MD  &{freq_coord}
     &END
   &END
  &END PRINT
#  &CONSTRAINT
#     &FIXED_ATOMS
#        LIST  139..170
#     &END FIXED_ATOMS
#  &END CONSTRAINT
&END MOTION

